/* Objective Funciton */
/* PLANT 1 LARGE= P1L, PLANT 1 MEDIUM = P1M AND SO ON */

max: 385P1L + 330P1M+ 275P1S+ 385P2L + 330P2M+ 275P2S+ 385P3L + 330P3M+ 275P3S;

/* Constraints */
Plant1: P1L+P1M+P1S <= 750;
Plant2: P2L+P2M+P2S <= 900;
Plant3: P3L+P3M+P3S <= 450;

Plant1: +20P1L+15P1M+12P1S <= 13000;
Plant2: +20P2L+15P2M+12P2S <= 12000;
Plant3: +20P3L+15P3M+12P3S <= 5000;

P1L+P2L+P3L <= 900;
P1M+P2M+P3M <= 1200;
P1S+P2S+P3S <= 750;